variable    TIME_STEPS  equal 2000
variable    THERMO_STEP equal 50
variable    DUMP_STEP   equal 1000
variable    EQUIL_STEPS equal 1000

variable    T0          equal 1.5
variable    T1          equal 1.5
variable    Tdamp       equal 0.5

variable    b           equal 5.72 #cell length in Å
variable    sigma       equal 3.405
variable    rhostar     equal 4/((${b}/${sigma})^3)
variable    nCells      equal 20
variable    seed        equal 87287

units lj
dimension 3
boundary p p p
atom_style atomic

lattice fcc ${rhostar}
region simbox block 0 ${nCells} 0 ${nCells} 0 ${nCells}
create_box 2 simbox
create_atoms 1 box
# group moving_particles type 1

mass * 1.0


pair_style lj/cut 3.0
pair_coeff * * 1.0 1.0 3.0

# fix 1 all nve
# fix 2 all temp/berendsen ${T0} ${T1} ${Tdamp}
fix 1 all nvt temp ${T0} ${T1} ${Tdamp}

# thermo_style custom step temp

velocity all create ${T0} ${seed}
thermo ${THERMO_STEP}
print "Thermalizing.. ${EQUIL_STEPS} steps"
run ${EQUIL_STEPS}

variable nSpheres equal 20
variable low    equal 20/$b #2nm/b (cell length)
variable hi     equal 30/$b #3nm/b


variable i loop ${nSpheres}
label loop_shperes
variable r      equal random(${low},${hi},${seed})
variable x      equal random(0,${nCells},${seed})
variable y      equal random(0,${nCells},${seed})
variable z      equal random(0,${nCells},${seed})


region s${i} sphere $x $y $z $r side in
# region flow${i} sphere $x $y $z $r side out

next i
jump SELF loop_shperes

region solid union ${nSpheres} s1 s2 s3 s4 s5 s6 s7 s8 s9 s10 s11 s12 s13 s14 s15 s16 s17 s18 s19 s20 side in
region flow union ${nSpheres} s1 s2 s3 s4 s5 s6 s7 s8 s9 s10 s11 s12 s13 s14 s15 s16 s17 s18 s19 s20 side out

group moving_particles region flow
group static_particles region solid

variable remove_ratio equal 0.5
delete_atoms porosity flow ${remove_ratio} ${seed}

set group static_particles type 2

set group static_particles vx 0.0 vy 0.0 vz 0.0
unfix 1

fix 1 moving_particles nvt temp ${T0} ${T1} ${Tdamp}

thermo ${THERMO_STEP}

run 4000

unfix 1
fix 1 moving_particles nve

reset_timestep 0
compute moving_temp moving_particles temp
compute my_stress moving_particles stress/atom NULL
compute my_msd moving_particles msd
variable time equal step*dt


thermo_style custom step v_time temp press c_moving_temp c_my_msd[4]

dump 1 moving_particles custom ${DUMP_STEP} dump.lammpstrj &
            id type x y z vx vy vz c_my_stress[1] c_my_stress[2] c_my_stress[3]


thermo ${THERMO_STEP}

run ${TIME_STEPS}

variable flowing equal count(moving_particles)/${remove_ratio}
variable static equal count(static_particles)
variable phi equal ${flowing}/(${static}+${flowing})

print "porosity of system: ${phi}"
print "density rhostar: ${rhostar}"
