#assign params
variable TIME_STEPS equal 4000
variable THERMO_STEP equal 10
variable DUMP_STEP equal 10
#end assign params


# units           metal
#
# atom_style      atomic
# atom_modify     map array
# boundary        p p p
# atom_modify     sort 0 0.0


#diamond unit cell
# variable myL equal 4          #original
variable myL equal 4
variable myScale equal 1.3    #original
# variable myScale equal 0.9

variable a equal 5.431*${myScale}


variable T0         equal 3000
variable T1         equal 8000
variable n_temps    equal 10

###LOOP 1###
label T_loop
# variable iter loop ${n_temps}
# variable T equal ${T0}+(${T1}-${T0})*(${iter}-1)/${n_temps}
variable T index 100 1000 2000 3000 5000

# variable myTemp1 equal 8000.0
# variable myTemp2 equal 10000.0
units           metal

atom_style      atomic
atom_modify     map array
boundary        p p p
atom_modify     sort 0 0.0

lattice         custom $a               &
                a1 1.0 0.0 0.0          &
                a2 0.0 1.0 0.0          &
                a3 0.0 0.0 1.0          &
                basis 0.0 0.0 0.0       &
                basis 0.0 0.5 0.5       &
                basis 0.5 0.0 0.5       &
                basis 0.5 0.5 0.0       &
                basis 0.25 0.25 0.25    &
                basis 0.25 0.75 0.75    &
                basis 0.75 0.25 0.75    &
                basis 0.75 0.75 0.25    &

region          myreg block     0 ${myL} &
                                0 ${myL} &
                                0 ${myL}

create_box      1 myreg
create_atoms    1 region myreg

mass            1       28.06

group Si type   1

velocity all create ${T} 5287286 mom yes rot yes dist gaussian

pair_style      sw
pair_coeff * * Si.sw Si
neighbor        1.0 bin
neigh_modify    every 1 delay 10 check yes

timestep        1.0e-3
# fix             1 all nve
fix             1 all nvt temp ${T} ${T} 0.05
# fix             1 all npt

run 500
reset_timestep 0


compute myRDF all rdf 50
fix 2 all ave/time 100 1 100 c_myRDF[*] file radial_data/log.rdf_T_${T} mode vector



thermo_style custom step temp press

log radial_data/log.T_${T}


# compute msd all msd
# thermo_style custom c_msd[4]

log log.T_${T}


#run
thermo          ${THERMO_STEP}
# dump 1 all custom ${DUMP_STEP} dump_T_${myTemp}.lammpstrj id type x y z vx vy vz
run             ${TIME_STEPS}


clear
next T
jump SELF T_loop















#
