log data/log.lammps
units lj
dimension 3
boundary p p p
atom_style atomic

variable sigma equal 3.405
variable b equal 5.72
variable b_in_sigma equal ${b}/${sigma}
variable density equal 4/(${b_in_sigma}^3)
variable L equal 20

variable T equal 0.851

lattice fcc ${density}
region simbox block 0 ${L} 0 ${L} 0 ${L}
create_box 1 simbox

mass 1 1.0
pair_style lj/cut 3.0
pair_coeff 1 1 1.0 1.0 3.0

variable radius equal 20/${sigma} # 2 nm
variable centrey equal ly/2
variable centrez equal lz/2
region cylinder cylinder x ${centrey} ${centrez} ${radius} EDGE EDGE units box

print "CYLINDER VALS"
print ${radius}
print ${centery}
print ${centerz}

create_atoms 1 box
velocity all create ${T} 87287
fix 1 all nvt temp ${T} ${T} 1.0

dump 1 all custom 10 data/dump.lammpstrj id type x y z vx vy vz
thermo_style custom step time temp ke pe etotal cpuremain spcpu
thermo 10

run 100 # thermalise

group moving region cylinder
group frozen subtract all moving
velocity frozen set 0 0 0
unfix 1

variable num_moving equal count(moving)
print ${num_moving} file data/beforedeletion.dat

variable is_moving atom gmask(moving)

# python delete_half_of_moving input 1 SELF format p file delete_half_of_moving.py
# python delete_half_of_moving invoke

print ${num_moving} file data/afterdeletion.dat

fix 1 moving nvt temp ${T} ${T} 1.0
run 100 # thermalise

unfix 1

variable mytime equal dt*step

variable vcmx_moving equal vcm(moving,x)
thermo_style custom step v_mytime v_vcmx_moving temp ke pe etotal cpuremain spcpu

reset_timestep 0
log data/log.flow
dump flowdump moving custom 10 data/dump.flow id type x y z vx vy vz

fix externalforce moving addforce 0.1 0 0
fix 1 moving nve

run 100
