variable TIME_STEPS equal 100000
variable THERMO_STEP equal 100
variable DUMP_STEP equal 10
variable T0 equal 2.5
variable T1 equal 3.5
variable Tdamp equal 100


#3d Lennard-Jones gas
units lj                                #Lennard-Jones units
dimension 3                             #3 dimensions
boundary p p p                          #periodic boundary conditions in all directions
atom_style atomic                       #simplest atom model, used for noble gases and coarse grained models

lattice fcc 0.01                        #generates "face-centered-cubic" lattice points with scale 0.01 (reduced density)
region simbox block 0 10 0 10 0 10      #define block region and give it the name "simbox"
create_box 1 simbox                     #create the simulation box, which will contain only 1 type of atoms
create_atoms 1 box                      #create atoms and fill the simbox we have defined using the lattice we have defined with atoms of type 1

mass 1 1.0                              #define atom 1 to have a mass of 1.0 (relative to the mass of the LJ model)
velocity all create ${T0} 87287           #generate gauss distributed velocities with seed 87287, such that the temperature for all atom types in the system is 2.5

pair_style lj/cut 3.0                   #define cutoff length of 3.0 (in units of sigma)
pair_coeff 1 1 1.0 1.0 3.0              #specify the parameters of the LJ model -> interactions between atom types 1 and 1 (1.0 = general sigma value, 1.0 = overall eps value, 3.0 = cutoff)

fix 1 all nve                           #specify what type of simulation, fix (called 1) is applied to all particles and runs at constant n-particles, constant volume and constant energy
fix 2 all temp/berendsen ${T0} ${T1} ${Tdamp}

thermo_style custom temp



#dump (name 1) all atom states every 10 time steps, to file 'dump.lammpstrj' with format 'atom id, atom type, pos, vel'
# dump 1 all custom ${DUMP_STEP} dump.lammpstrj id type x y z vx vy vz

thermo ${THERMO_STEP}                              #output results to terminal and logfile 'log.lammps' every 100 time steps

run ${TIME_STEPS}                                #run simulation for 5000 time steps



### Loops in lammps ###

#label dt_loop
#variable dt index 0.001 0.01 0.1 ...
#...
#dump dump.dt_${dt}
#...
#run 1000
#clear
#next dt
#jump SELF dt_loop
